PARAMETER_FILE = even/even_complete_graph_new/par/random133.par
PROBLEM_FILE = even/even_complete_graph_new/mat/random133.tsp
Successes/Runs = 0/10
Cost.min = 869, Cost.avg = 869.20, Cost.max = 871
Gap.min = 0.0000%, Gap.avg = 0.0230%, Gap.max = 0.2301%
Trials.min = 1000, Trials.avg = 1000.0, Trials.max = 1000
Time.min = 1.57 sec., Time.avg = 2.59 sec., Time.max = 3.33 sec.
Time.total = 26.01 sec.
